0	24	146	72	135	133	88	171	158	105	27	
64	0	93	68	67	182	173	113	143	198	182	
198	103	0	139	132	166	130	30	37	198	122	
134	59	109	0	194	120	106	38	177	32	197	
50	68	117	146	0	198	45	152	137	28	193	
26	64	109	198	200	0	175	76	99	37	92	
81	44	178	86	187	193	0	166	170	87	40	
191	99	72	198	53	120	40	0	23	77	92	
120	193	71	64	73	112	25	63	0	110	109	
34	22	138	46	124	138	63	115	171	0	46	
46	135	100	49	56	183	38	102	88	166	0	
